certificates/rado_a9_c58_N27.cnf
c Rad2 upper bound instance: x1 + 9*x2 - x3 = 58, interval [1,27]
p cnf 27 160
1 6 7 0
-1 -6 -7 0
1 8 15 0
-1 -8 -15 0
1 9 24 0
-1 -9 -24 0
2 7 0
-2 -7 0
2 8 16 0
-2 -8 -16 0
2 9 25 0
-2 -9 -25 0
3 7 8 0
-3 -7 -8 0
3 8 17 0
-3 -8 -17 0
3 9 26 0
-3 -9 -26 0
4 7 9 0
-4 -7 -9 0
4 8 18 0
-4 -8 -18 0
4 9 27 0
-4 -9 -27 0
1 5 6 0
-1 -5 -6 0
5 7 10 0
-5 -7 -10 0
5 8 19 0
-5 -8 -19 0
2 6 0
-2 -6 0
6 7 11 0
-6 -7 -11 0
6 8 20 0
-6 -8 -20 0
3 6 7 0
-3 -6 -7 0
7 12 0
-7 -12 0
7 8 21 0
-7 -8 -21 0
4 6 8 0
-4 -6 -8 0
7 8 13 0
-7 -8 -13 0
8 22 0
-8 -22 0
5 6 9 0
-5 -6 -9 0
7 9 14 0
-7 -9 -14 0
8 9 23 0
-8 -9 -23 0
6 10 0
-6 -10 0
7 10 15 0
-7 -10 -15 0
8 10 24 0
-8 -10 -24 0
7 11 16 0
-7 -11 -16 0
8 11 25 0
-8 -11 -25 0
6 8 12 0
-6 -8 -12 0
7 12 17 0
-7 -12 -17 0
8 12 26 0
-8 -12 -26 0
6 9 13 0
-6 -9 -13 0
7 13 18 0
-7 -13 -18 0
8 13 27 0
-8 -13 -27 0
1 5 14 0
-1 -5 -14 0
6 10 14 0
-6 -10 -14 0
7 14 19 0
-7 -14 -19 0
2 5 15 0
-2 -5 -15 0
6 11 15 0
-6 -11 -15 0
7 15 20 0
-7 -15 -20 0
3 5 16 0
-3 -5 -16 0
6 12 16 0
-6 -12 -16 0
7 16 21 0
-7 -16 -21 0
4 5 17 0
-4 -5 -17 0
6 13 17 0
-6 -13 -17 0
7 17 22 0
-7 -17 -22 0
5 18 0
-5 -18 0
6 14 18 0
-6 -14 -18 0
7 18 23 0
-7 -18 -23 0
5 6 19 0
-5 -6 -19 0
6 15 19 0
-6 -15 -19 0
7 19 24 0
-7 -19 -24 0
5 7 20 0
-5 -7 -20 0
6 16 20 0
-6 -16 -20 0
7 20 25 0
-7 -20 -25 0
5 8 21 0
-5 -8 -21 0
6 17 21 0
-6 -17 -21 0
7 21 26 0
-7 -21 -26 0
5 9 22 0
-5 -9 -22 0
6 18 22 0
-6 -18 -22 0
7 22 27 0
-7 -22 -27 0
1 4 23 0
-1 -4 -23 0
5 10 23 0
-5 -10 -23 0
6 19 23 0
-6 -19 -23 0
2 4 24 0
-2 -4 -24 0
5 11 24 0
-5 -11 -24 0
6 20 24 0
-6 -20 -24 0
3 4 25 0
-3 -4 -25 0
5 12 25 0
-5 -12 -25 0
6 21 25 0
-6 -21 -25 0
4 26 0
-4 -26 0
5 13 26 0
-5 -13 -26 0
6 22 26 0
-6 -22 -26 0
4 5 27 0
-4 -5 -27 0
5 14 27 0
-5 -14 -27 0
6 23 27 0
-6 -23 -27 0
