certificates/rado_a9_c58_N27.drat
6 -24 4 0
-6 4 -27 0
-26 -27 0
5 9 0
d 5 6 9 0
-4 -27 0
d -9 -4 -27 0
-27 0
9 0
-5 0
18 0
4 0
14 0
-8 0
-26 0
-7 0
-6 0
19 0
20 0
21 0
13 0
22 0
12 0
3 0
2 0
1 0
11 0
10 0
23 0
-25 0
-24 0
0
